NAME : EIL101B.705.tour
COMMENT : Cost = 0_705
COMMENT : Found by LKH [Keld Helsgaun] Sun Sep 17 16:52:42 2017
TYPE : TOUR
DIMENSION : 101
TOUR_SECTION
1
69
70
30
10
31
88
62
11
49
36
47
46
45
17
61
93
98
37
92
59
99
96
6
89
18
52
27
28
101
53
40
58
13
94
95
97
87
57
2
72
75
56
23
67
39
4
25
55
54
80
68
12
26
21
73
74
22
41
15
43
42
14
44
38
86
16
91
100
85
84
5
60
83
8
82
48
7
19
64
63
90
32
66
20
51
50
76
77
3
79
24
29
78
34
35
65
71
9
81
33
-1
EOF
